# Solution for model FSG
# Objective value = 1.4206060020297023e+03
x_0_1 0
x_0_2 0
x_0_3 1
x_0_4 0
x_0_5 0
x_0_6 0
x_0_7 1
x_0_8 0
x_0_9 0
x_1_2 0
x_1_3 0
x_1_4 1
x_1_5 0
x_1_6 0
x_1_7 0
x_1_8 0
x_1_9 0
x_2_1 0
x_2_3 0
x_2_4 0
x_2_5 0
x_2_6 1
x_2_7 0
x_2_8 0
x_2_9 0
x_3_1 0
x_3_2 0
x_3_4 0
x_3_5 1
x_3_6 0
x_3_7 0
x_3_8 0
x_3_9 0
x_4_1 0
x_4_2 0
x_4_3 0
x_4_5 0
x_4_6 0
x_4_7 0
x_4_8 0
x_4_9 1
x_5_1 1
x_5_2 0
x_5_3 0
x_5_4 0
x_5_6 0
x_5_7 0
x_5_8 0
x_5_9 0
x_6_1 0
x_6_2 0
x_6_3 0
x_6_4 0
x_6_5 0
x_6_7 0
x_6_8 1
x_6_9 0
x_7_1 0
x_7_2 1
x_7_3 0
x_7_4 0
x_7_5 0
x_7_6 0
x_7_8 0
x_7_9 0
U_1_1 0
U_1_2 1
U_1_3 0
U_2_1 0
U_2_2 1
U_2_3 0
U_3_1 1
U_3_2 0
U_3_3 0
U_4_1 0
U_4_2 1
U_4_3 0
U_5_1 1
U_5_2 0
U_5_3 0
U_6_1 0
U_6_2 1
U_6_3 0
U_7_1 1
U_7_2 0
U_7_3 0
U_8_1 0
U_8_2 0
U_8_3 1
U_9_1 0
U_9_2 0
U_9_3 1
TBar_0 0
TBar_1 1.4361235715077989e+01
TBar_2 1.0498062877529840e+01
TBar_3 4.3778533552415837e+00
TBar_4 1.8351686817397123e+01
TBar_5 9.0205147899593570e+00
TBar_6 20
TBar_7 4.7617748791810826e+00
TBar_8 30
TBar_9 30
y_0_1_1 0
y_0_1_2 0
y_0_1_3 0
y_0_1_4 0
y_0_1_5 0
y_0_2_1 0
y_0_2_2 0
y_0_2_3 0
y_0_2_4 0
y_0_2_5 0
y_0_3_1 0
y_0_3_2 0
y_0_3_3 0
y_0_3_4 0
y_0_3_5 0
y_0_4_1 0
y_0_4_2 0
y_0_4_3 0
y_0_4_4 0
y_0_4_5 0
y_0_5_1 0
y_0_5_2 0
y_0_5_3 0
y_0_5_4 0
y_0_5_5 0
y_0_6_1 0
y_0_6_2 0
y_0_6_3 0
y_0_6_4 0
y_0_6_5 0
y_0_7_1 0
y_0_7_2 0
y_0_7_3 0
y_0_7_4 0
y_0_7_5 0
y_0_8_1 0
y_0_8_2 0
y_0_8_3 0
y_0_8_4 0
y_0_8_5 0
y_0_9_1 0
y_0_9_2 0
y_0_9_3 0
y_0_9_4 0
y_0_9_5 0
y_1_2_1 0
y_1_2_2 0
y_1_2_3 0
y_1_2_4 0
y_1_2_5 0
y_1_3_1 0
y_1_3_2 0
y_1_3_3 0
y_1_3_4 0
y_1_3_5 0
y_1_4_1 0
y_1_4_2 0
y_1_4_3 0
y_1_4_4 0
y_1_4_5 0
y_1_5_1 0
y_1_5_2 0
y_1_5_3 0
y_1_5_4 0
y_1_5_5 0
y_1_6_1 0
y_1_6_2 0
y_1_6_3 0
y_1_6_4 0
y_1_6_5 0
y_1_7_1 0
y_1_7_2 0
y_1_7_3 0
y_1_7_4 0
y_1_7_5 0
y_1_8_1 0
y_1_8_2 0
y_1_8_3 0
y_1_8_4 0
y_1_8_5 0
y_1_9_1 0
y_1_9_2 0
y_1_9_3 0
y_1_9_4 0
y_1_9_5 0
y_2_1_1 0
y_2_1_2 0
y_2_1_3 0
y_2_1_4 0
y_2_1_5 0
y_2_3_1 0
y_2_3_2 0
y_2_3_3 0
y_2_3_4 0
y_2_3_5 0
y_2_4_1 0
y_2_4_2 0
y_2_4_3 0
y_2_4_4 0
y_2_4_5 0
y_2_5_1 0
y_2_5_2 0
y_2_5_3 0
y_2_5_4 0
y_2_5_5 0
y_2_6_1 0
y_2_6_2 0
y_2_6_3 0
y_2_6_4 0
y_2_6_5 0
y_2_7_1 0
y_2_7_2 0
y_2_7_3 0
y_2_7_4 0
y_2_7_5 0
y_2_8_1 0
y_2_8_2 0
y_2_8_3 0
y_2_8_4 0
y_2_8_5 0
y_2_9_1 0
y_2_9_2 0
y_2_9_3 0
y_2_9_4 0
y_2_9_5 0
y_3_1_1 0
y_3_1_2 0
y_3_1_3 0
y_3_1_4 0
y_3_1_5 0
y_3_2_1 0
y_3_2_2 0
y_3_2_3 0
y_3_2_4 0
y_3_2_5 0
y_3_4_1 0
y_3_4_2 0
y_3_4_3 0
y_3_4_4 0
y_3_4_5 0
y_3_5_1 0
y_3_5_2 0
y_3_5_3 0
y_3_5_4 0
y_3_5_5 0
y_3_6_1 0
y_3_6_2 0
y_3_6_3 0
y_3_6_4 0
y_3_6_5 0
y_3_7_1 0
y_3_7_2 0
y_3_7_3 0
y_3_7_4 0
y_3_7_5 0
y_3_8_1 0
y_3_8_2 0
y_3_8_3 0
y_3_8_4 0
y_3_8_5 0
y_3_9_1 0
y_3_9_2 0
y_3_9_3 0
y_3_9_4 0
y_3_9_5 0
y_4_1_1 0
y_4_1_2 0
y_4_1_3 0
y_4_1_4 0
y_4_1_5 0
y_4_2_1 0
y_4_2_2 0
y_4_2_3 0
y_4_2_4 0
y_4_2_5 0
y_4_3_1 0
y_4_3_2 0
y_4_3_3 0
y_4_3_4 0
y_4_3_5 0
y_4_5_1 0
y_4_5_2 0
y_4_5_3 0
y_4_5_4 0
y_4_5_5 0
y_4_6_1 0
y_4_6_2 0
y_4_6_3 0
y_4_6_4 0
y_4_6_5 0
y_4_7_1 0
y_4_7_2 0
y_4_7_3 0
y_4_7_4 0
y_4_7_5 0
y_4_8_1 0
y_4_8_2 0
y_4_8_3 0
y_4_8_4 0
y_4_8_5 0
y_4_9_1 0
y_4_9_2 0
y_4_9_3 0
y_4_9_4 0
y_4_9_5 0
y_5_1_1 0
y_5_1_2 0
y_5_1_3 0
y_5_1_4 0
y_5_1_5 0
y_5_2_1 0
y_5_2_2 0
y_5_2_3 0
y_5_2_4 0
y_5_2_5 0
y_5_3_1 0
y_5_3_2 0
y_5_3_3 0
y_5_3_4 0
y_5_3_5 0
y_5_4_1 0
y_5_4_2 0
y_5_4_3 0
y_5_4_4 0
y_5_4_5 0
y_5_6_1 0
y_5_6_2 0
y_5_6_3 0
y_5_6_4 0
y_5_6_5 0
y_5_7_1 0
y_5_7_2 0
y_5_7_3 0
y_5_7_4 0
y_5_7_5 0
y_5_8_1 0
y_5_8_2 0
y_5_8_3 0
y_5_8_4 0
y_5_8_5 0
y_5_9_1 0
y_5_9_2 0
y_5_9_3 0
y_5_9_4 0
y_5_9_5 0
y_6_1_1 0
y_6_1_2 0
y_6_1_3 0
y_6_1_4 0
y_6_1_5 0
y_6_2_1 0
y_6_2_2 0
y_6_2_3 0
y_6_2_4 0
y_6_2_5 0
y_6_3_1 0
y_6_3_2 0
y_6_3_3 0
y_6_3_4 0
y_6_3_5 0
y_6_4_1 0
y_6_4_2 0
y_6_4_3 0
y_6_4_4 0
y_6_4_5 0
y_6_5_1 0
y_6_5_2 0
y_6_5_3 0
y_6_5_4 0
y_6_5_5 0
y_6_7_1 0
y_6_7_2 0
y_6_7_3 0
y_6_7_4 0
y_6_7_5 0
y_6_8_1 1
y_6_8_2 1
y_6_8_3 1
y_6_8_4 1
y_6_8_5 1
y_6_9_1 0
y_6_9_2 0
y_6_9_3 0
y_6_9_4 0
y_6_9_5 0
y_7_1_1 0
y_7_1_2 0
y_7_1_3 0
y_7_1_4 0
y_7_1_5 0
y_7_2_1 0
y_7_2_2 0
y_7_2_3 0
y_7_2_4 0
y_7_2_5 0
y_7_3_1 0
y_7_3_2 0
y_7_3_3 0
y_7_3_4 0
y_7_3_5 0
y_7_4_1 0
y_7_4_2 0
y_7_4_3 0
y_7_4_4 0
y_7_4_5 0
y_7_5_1 0
y_7_5_2 0
y_7_5_3 0
y_7_5_4 0
y_7_5_5 0
y_7_6_1 0
y_7_6_2 0
y_7_6_3 0
y_7_6_4 0
y_7_6_5 0
y_7_8_1 0
y_7_8_2 0
y_7_8_3 0
y_7_8_4 0
y_7_8_5 0
y_7_9_1 0
y_7_9_2 0
y_7_9_3 0
y_7_9_4 0
y_7_9_5 0
Q_0_1 0
Q_0_2 0
Q_0_3 0
Q_0_4 0
Q_0_5 0
Q_1_1 1.1846000000000117e+02
Q_1_2 9.6540000000001157e+01
Q_1_3 1.0880500000000117e+02
Q_1_4 1.1073000000000116e+02
Q_1_5 114.8
Q_2_1 1.7248499999999993e+02
Q_2_2 1.6977499999999992e+02
Q_2_3 1.6976499999999993e+02
Q_2_4 1.6611499999999990e+02
Q_2_5 1.6351999999999992e+02
Q_3_1 3.9260000000000659e+01
Q_3_2 3.7445000000000654e+01
Q_3_3 3.6920000000000655e+01
Q_3_4 4.0430000000000653e+01
Q_3_5 4.0415000000000660e+01
Q_4_1 2.1617000000000121e+02
Q_4_2 1.9386500000000115e+02
Q_4_3 2.0757000000000045e+02
Q_4_4 2.1328000000000048e+02
Q_4_5 2.1155500000000038e+02
Q_5_1 8.1170000000001167e+01
Q_5_2 6.6920000000001153e+01
Q_5_3 7.4960000000001173e+01
Q_5_4 6.9920000000001153e+01
Q_5_5 80
Q_6_1 2.5412500000000028e+02
Q_6_2 2.6311000000000030e+02
Q_6_3 2.5763000000000028e+02
Q_6_4 2.4505500000000026e+02
Q_6_5 251.95
Q_7_1 7.6309999999999633e+01
Q_7_2 7.1969999999999629e+01
Q_7_3 7.1209999999999638e+01
Q_7_4 74.1
Q_7_5 6.9279999999999632e+01
Q_8_1 2.5412500000000028e+02
Q_8_2 2.6311000000000030e+02
Q_8_3 2.5763000000000028e+02
Q_8_4 2.4505500000000026e+02
Q_8_5 251.95
Q_9_1 2.1617000000000098e+02
Q_9_2 1.9386500000000089e+02
Q_9_3 2.0756999999999982e+02
Q_9_4 2.1327999999999986e+02
Q_9_5 2.1155499999999972e+02
R_8_1 5.4125000000000284e+01
R_8_2 63.1100000000003
R_8_3 5.7630000000000280e+01
R_8_4 4.5055000000000263e+01
R_8_5 51.95
R_9_1 1.6170000000000982e+01
R_9_2 0
R_9_3 7.5699999999998226e+00
R_9_4 1.3279999999999859e+01
R_9_5 1.1554999999999723e+01
L_1_1 4.005
L_1_2 2.655
L_1_3 6.83
L_1_4 4.865
L_1_5 6.095
L_2_1 7.17
L_2_2 14.65
L_2_3 9.36
L_2_4 11.27
L_2_5 8.01
L_3_1 12.875
L_3_2 9.225
L_3_3 13.95
L_3_4 14.105
L_3_5 14.48
L_4_1 13.01
L_4_2 9.1
L_4_3 6.51
L_4_4 7.94
L_4_5 12.69
L_5_1 8.205
L_5_2 9.79
L_5_3 1.2905000000000001e+01
L_5_4 7.68
L_5_5 10.98
L_6_1 5.1
L_6_2 5.72
L_6_3 5.48
L_6_4 5.295
L_6_5 5.6
L_7_1 16.59
L_7_2 27.57
L_7_3 17.915
L_7_4 21.3
L_7_5 1.3325000000000001e+01
rho_1_1 0
rho_1_2 0
rho_1_3 0
rho_1_4 0
rho_1_5 0
rho_2_1 0
rho_2_2 0
rho_2_3 0
rho_2_4 0
rho_2_5 0
rho_3_1 0
rho_3_2 0
rho_3_3 0
rho_3_4 0
rho_3_5 0
rho_4_1 1
rho_4_2 0
rho_4_3 1
rho_4_4 1
rho_4_5 1
rho_5_1 0
rho_5_2 0
rho_5_3 0
rho_5_4 0
rho_5_5 0
rho_6_1 1
rho_6_2 1
rho_6_3 1
rho_6_4 1
rho_6_5 1
rho_7_1 0
rho_7_2 0
rho_7_3 0
rho_7_4 0
rho_7_5 0
lambd_1_1 0
lambd_1_2 0
lambd_1_3 0
lambd_1_4 0
lambd_1_5 0
lambd_2_1 0
lambd_2_2 0
lambd_2_3 0
lambd_2_4 0
lambd_2_5 0
lambd_3_1 0
lambd_3_2 0
lambd_3_3 0
lambd_3_4 0
lambd_3_5 0
lambd_4_1 0
lambd_4_2 0
lambd_4_3 0
lambd_4_4 0
lambd_4_5 0
lambd_5_1 0
lambd_5_2 0
lambd_5_3 0
lambd_5_4 0
lambd_5_5 0
lambd_6_1 0
lambd_6_2 0
lambd_6_3 0
lambd_6_4 0
lambd_6_5 0
lambd_7_1 0
lambd_7_2 0
lambd_7_3 0
lambd_7_4 0
lambd_7_5 0
alpha_1_1 0
alpha_1_2 0
alpha_1_3 0
alpha_1_4 0
alpha_1_5 0
alpha_2_1 0
alpha_2_2 0
alpha_2_3 0
alpha_2_4 0
alpha_2_5 0
alpha_3_1 0
alpha_3_2 0
alpha_3_3 0
alpha_3_4 0
alpha_3_5 0
alpha_4_1 0
alpha_4_2 0
alpha_4_3 0
alpha_4_4 0
alpha_4_5 0
alpha_5_1 0
alpha_5_2 0
alpha_5_3 0
alpha_5_4 0
alpha_5_5 0
alpha_6_1 1
alpha_6_2 1
alpha_6_3 1
alpha_6_4 1
alpha_6_5 1
alpha_7_1 0
alpha_7_2 0
alpha_7_3 0
alpha_7_4 0
alpha_7_5 0
